computational_data/real_data/solutions/wdbc_trial_016_lex.sol
Optimal - objective value 7.59292000
      0 r_0                         0                0.946903
      1 r_1                         0                0.946903
      2 r_2                         0                0.946903
      3 r_3                         0                0.973451
      4 r_4                         0                0.973451
      5 r_5                         0                0.964602
      6 r_6                         0                0.964602
      7 r_7                         1                0.929204
      8 r_8                         0                0.938053
      9 r_9                         0                0.938053
     10 r_10                        0                0.946903
     11 r_11                        1                0.938053
     12 r_12                        0                0.964602
     13 r_13                        1                0.938053
     14 r_14                        0                0.964602
     15 r_15                        1                0.973451
     16 r_16                        1                0.955752
     17 r_17                        0                0.946903
     18 b_0                         0                0.946903
     19 b_1                         0                0.946903
     20 b_2                         1                0.946903
     21 b_3                         1                0.973451
     22 b_4                         0                0.973451
     23 b_5                         0                0.964602
     24 b_6                         0                0.964602
     25 b_7                         0                0.929204
     26 b_8                         0                0.938053
     27 b_9                         1                0.938053
     28 b_10                        0                0.946903
     29 b_11                        0                0.938053
     30 b_12                        0                0.964602
     31 b_13                        0                0.938053
     32 b_14                        0                0.964602
     33 b_15                        0                0.973451
     34 b_16                        0                0.955752
     35 b_17                        0                0.946903
