computational_data/real_data/logs/wdbc_trial_016_lex.log
Welcome to the CBC MILP Solver 
Version: 2.10.12 
Build Date: Aug 20 2024 

command line - /opt/homebrew/bin/cbc computational_data/real_data/lp/wdbc_trial_016_lex.lp seconds 10.0 solve solu computational_data/real_data/solutions/wdbc_trial_016_lex.sol (default strategy 1)
 CoinLpIO::readLp(): Maximization problem reformulated as minimization
Coin0009I Switching back to maximization to get correct duals etc
seconds was changed from 1e+100 to 10
Continuous objective value is 7.62389 - 0.00 seconds
Cgl0003I 0 fixed, 0 tightened bounds, 52 strengthened rows, 0 substitutions
Cgl0003I 0 fixed, 0 tightened bounds, 53 strengthened rows, 0 substitutions
Cgl0003I 0 fixed, 0 tightened bounds, 44 strengthened rows, 0 substitutions
Cgl0003I 0 fixed, 0 tightened bounds, 26 strengthened rows, 0 substitutions
Cgl0003I 0 fixed, 0 tightened bounds, 16 strengthened rows, 0 substitutions
Cgl0003I 0 fixed, 0 tightened bounds, 4 strengthened rows, 0 substitutions
Cgl0003I 0 fixed, 0 tightened bounds, 4 strengthened rows, 0 substitutions
Cgl0003I 0 fixed, 0 tightened bounds, 4 strengthened rows, 0 substitutions
Cgl0003I 0 fixed, 0 tightened bounds, 4 strengthened rows, 0 substitutions
Cgl0004I processed model has 69 rows, 32 columns (32 integer (31 of which binary)) and 407 elements
Cbc0038I Initial state - 20 integers unsatisfied sum - 3.6
Cbc0038I Pass   1: suminf.    0.00000 (0) obj. 7.59292 iterations 21
Cbc0038I Solution found of 7.59292
Cbc0038I Cleaned solution of 7.59292
Cbc0038I Before mini branch and bound, 12 integers at bound fixed and 0 continuous
Cbc0038I Full problem 69 rows 32 columns, reduced to 40 rows 18 columns
Cbc0038I Mini branch and bound did not improve solution (0.01 seconds)
Cbc0038I Round again with cutoff of 7.5939
Cbc0038I Reduced cost fixing fixed 2 variables on major pass 2
Cbc0038I Pass   2: suminf.    0.38857 (8) obj. 7.5939 iterations 7
Cbc0038I Pass   3: suminf.    0.37747 (14) obj. 7.5939 iterations 8
Cbc0038I Pass   4: suminf.    3.30867 (15) obj. 7.5939 iterations 13
Cbc0038I Pass   5: suminf.    0.41633 (9) obj. 7.5939 iterations 10
Cbc0038I Pass   6: suminf.    0.37747 (14) obj. 7.5939 iterations 14
Cbc0038I Pass   7: suminf.    3.90000 (16) obj. 7.59469 iterations 11
Cbc0038I Pass   8: suminf.    0.38857 (8) obj. 7.5939 iterations 13
Cbc0038I Pass   9: suminf.    0.37747 (14) obj. 7.5939 iterations 9
Cbc0038I Pass  10: suminf.    3.30867 (15) obj. 7.5939 iterations 11
Cbc0038I Pass  11: suminf.    0.41633 (9) obj. 7.5939 iterations 9
Cbc0038I Pass  12: suminf.    0.37747 (14) obj. 7.5939 iterations 8
Cbc0038I Pass  13: suminf.    3.90000 (16) obj. 7.59469 iterations 13
Cbc0038I Pass  14: suminf.    0.38857 (8) obj. 7.5939 iterations 12
Cbc0038I Pass  15: suminf.    0.37747 (14) obj. 7.5939 iterations 9
Cbc0038I Pass  16: suminf.    3.30867 (15) obj. 7.5939 iterations 13
Cbc0038I Pass  17: suminf.    0.41633 (9) obj. 7.5939 iterations 10
Cbc0038I Pass  18: suminf.    0.37747 (14) obj. 7.5939 iterations 10
Cbc0038I Pass  19: suminf.    3.90000 (16) obj. 7.59469 iterations 14
Cbc0038I Pass  20: suminf.    0.38857 (8) obj. 7.5939 iterations 11
Cbc0038I Pass  21: suminf.    0.37747 (14) obj. 7.5939 iterations 8
Cbc0038I Pass  22: suminf.    3.30867 (15) obj. 7.5939 iterations 11
Cbc0038I Pass  23: suminf.    0.41633 (9) obj. 7.5939 iterations 12
Cbc0038I Pass  24: suminf.    0.37747 (14) obj. 7.5939 iterations 14
Cbc0038I Pass  25: suminf.    3.90000 (16) obj. 7.59469 iterations 16
Cbc0038I Pass  26: suminf.    0.38857 (8) obj. 7.5939 iterations 14
Cbc0038I Pass  27: suminf.    0.37747 (14) obj. 7.5939 iterations 9
Cbc0038I Pass  28: suminf.    3.30867 (15) obj. 7.5939 iterations 12
Cbc0038I Pass  29: suminf.    0.41633 (9) obj. 7.5939 iterations 9
Cbc0038I Pass  30: suminf.    0.37747 (14) obj. 7.5939 iterations 8
Cbc0038I Pass  31: suminf.    3.90000 (16) obj. 7.59469 iterations 13
Cbc0038I No solution found this major pass
Cbc0038I Before mini branch and bound, 8 integers at bound fixed and 0 continuous
Cbc0038I Full problem 69 rows 32 columns, reduced to 52 rows 23 columns
Cbc0038I Mini branch and bound did not improve solution (0.04 seconds)
Cbc0038I After 0.04 seconds - Feasibility pump exiting with objective of 7.59292 - took 0.03 seconds
Cbc0012I Integer solution of 7.59292 found by feasibility pump after 0 iterations and 0 nodes (0.04 seconds)
Cbc0038I Full problem 69 rows 32 columns, reduced to 40 rows 18 columns
Cbc0031I 4 added rows had average density of 17
Cbc0013I At root node, 14 cuts changed objective from 7.602655 to 7.59292 in 1 passes
Cbc0014I Cut generator 0 (Probing) - 0 row cuts average 0.0 elements, 2 column cuts (2 active)  in 0.000 seconds - new frequency is 1
Cbc0014I Cut generator 1 (Gomory) - 6 row cuts average 20.7 elements, 0 column cuts (0 active)  in 0.000 seconds - new frequency is 1
Cbc0014I Cut generator 2 (Knapsack) - 0 row cuts average 0.0 elements, 0 column cuts (0 active)  in 0.000 seconds - new frequency is -100
Cbc0014I Cut generator 3 (Clique) - 0 row cuts average 0.0 elements, 0 column cuts (0 active)  in 0.000 seconds - new frequency is -100
Cbc0014I Cut generator 4 (MixedIntegerRounding2) - 0 row cuts average 0.0 elements, 0 column cuts (0 active)  in 0.000 seconds - new frequency is -100
Cbc0014I Cut generator 5 (FlowCover) - 0 row cuts average 0.0 elements, 0 column cuts (0 active)  in 0.000 seconds - new frequency is -100
Cbc0014I Cut generator 6 (TwoMirCuts) - 8 row cuts average 13.2 elements, 0 column cuts (0 active)  in 0.000 seconds - new frequency is -100
Cbc0001I Search completed - best objective 7.592919999999999, took 0 iterations and 0 nodes (0.04 seconds)
Cbc0035I Maximum depth 0, 0 variables fixed on reduced cost
Cuts at root node changed objective from 7.60266 to 7.59292
Probing was tried 1 times and created 2 cuts of which 0 were active after adding rounds of cuts (0.000 seconds)
Gomory was tried 1 times and created 6 cuts of which 0 were active after adding rounds of cuts (0.000 seconds)
Knapsack was tried 1 times and created 0 cuts of which 0 were active after adding rounds of cuts (0.000 seconds)
Clique was tried 1 times and created 0 cuts of which 0 were active after adding rounds of cuts (0.000 seconds)
MixedIntegerRounding2 was tried 1 times and created 0 cuts of which 0 were active after adding rounds of cuts (0.000 seconds)
FlowCover was tried 1 times and created 0 cuts of which 0 were active after adding rounds of cuts (0.000 seconds)
TwoMirCuts was tried 1 times and created 8 cuts of which 0 were active after adding rounds of cuts (0.000 seconds)
ZeroHalf was tried 1 times and created 0 cuts of which 0 were active after adding rounds of cuts (0.000 seconds)

Result - Optimal solution found

Objective value:                7.59292000
Enumerated nodes:               0
Total iterations:               0
Time (CPU seconds):             0.04
Time (Wallclock seconds):       0.04

Total time (CPU seconds):       0.04   (Wallclock seconds):       0.04

